; input_dword_3
(declare-fun d () (_ BitVec 32))
(let ((?x1746 (concat ((_ extract 27 2) (bvadd (_ bv422262738 32) d)) (bvnot (bvadd (_ bv2 2) ((_ extract 1 0) d))) ((_ extract 31 28) (bvadd (_ bv422262738 32) d)))))
(let ((?x1779 (bvadd (_ bv6 32) ?x1746)))
(let ((?x1879 (concat (bvnot ((_ extract 15 15) ?x1779)) ((_ extract 14 13) ?x1779) (bvnot ((_ extract 12 12) ?x1779)) ((_ extract 11 9) ?x1779) (bvnot ((_ extract 8 7) ?x1779)) ((_ extract 6 6) ?x1779) (bvnot ((_ extract 5 5) ?x1779)) (bvadd (_ bv6 5) (concat (bvnot ((_ extract 0 0) d)) ((_ extract 31 28) (bvadd (_ bv422262738 32) d)))) (bvnot ((_ extract 31 31) ?x1779)) ((_ extract 30 30) ?x1779) (bvnot ((_ extract 29 28) ?x1779)) (bvnot ((_ extract 27 22) ?x1779)) ((_ extract 21 21) ?x1779) (bvnot ((_ extract 20 19) ?x1779)) ((_ extract 18 17) ?x1779) (bvnot ((_ extract 16 16) ?x1779)))))
(let ((?x1884 (bvadd (_ bv3 32) ?x1879)))
(let ((?x1929 (bvadd (_ bv3 4) (concat (bvnot ((_ extract 19 19) ?x1779)) ((_ extract 18 17) ?x1779) (bvnot ((_ extract 16 16) ?x1779))))))
(let ((?x1861 (concat ((_ extract 4 4) ?x1884) ?x1929 ((_ extract 31 26) ?x1884) (bvnot ((_ extract 25 24) ?x1884)) ((_ extract 23 5) ?x1884))))
(let ((?x1821 (bvadd (_ bv3493170197 32) ?x1861)))
(let ((?x1817 (concat (bvnot ((_ extract 10 3) ?x1821)) (bvnot (bvadd (_ bv5 3) ((_ extract 7 5) ?x1884))) (bvnot ((_ extract 31 11) ?x1821)))))
(let ((?x1825 (concat (bvadd (_ bv3 3) (bvnot ((_ extract 13 11) ?x1821))) ((_ extract 31 3) (bvadd (_ bv3 32) ?x1817)))))
(let ((?x1923 (bvadd (_ bv976151303 32) ?x1825)))
(let ((?x1717 (concat ((_ extract 14 9) ?x1923) (bvnot ((_ extract 8 8) ?x1923)) ((_ extract 7 7) ?x1923) (bvnot ((_ extract 6 6) ?x1923)) ((_ extract 5 3) ?x1923) (bvnot (bvadd (_ bv7 3) ((_ extract 5 3) (bvadd (_ bv3 32) ?x1817)))) (bvnot ((_ extract 31 30) ?x1923)) ((_ extract 29 27) ?x1923) (bvnot ((_ extract 26 24) ?x1923)) ((_ extract 23 22) ?x1923) (bvnot ((_ extract 21 17) ?x1923)) ((_ extract 16 15) ?x1923))))
(let ((?x1925 (bvadd (_ bv2279418824 32) ?x1717)))
(let ((?x1967 (concat (bvnot ((_ extract 31 31) (bvadd (_ bv4294967293 32) (concat ((_ extract 15 15) ?x1923) ((_ extract 31 1) ?x1925))))) (bvnot ((_ extract 30 4) (bvadd (_ bv4294967293 32) (concat ((_ extract 15 15) ?x1923) ((_ extract 31 1) ?x1925))))) (bvnot (bvadd (_ bv13 4) ((_ extract 4 1) ?x1925))))))
(let ((?x1958 (bvadd (_ bv828184664 32) ?x1967)))
(let ((?x2002 (concat ((_ extract 7 6) ?x1958) (bvnot ((_ extract 5 4) ?x1958)) ((_ extract 3 3) (bvadd (_ bv8 4) (bvnot (bvadd (_ bv13 4) ((_ extract 4 1) ?x1925))))) (bvadd (_ bv5 3) ((_ extract 3 1) ?x1925)) (bvnot ((_ extract 31 30) ?x1958)) ((_ extract 29 26) ?x1958) (bvnot ((_ extract 25 25) ?x1958)) ((_ extract 24 24) ?x1958) (bvnot ((_ extract 23 22) ?x1958)) ((_ extract 21 17) ?x1958) (bvnot ((_ extract 16 15) ?x1958)) ((_ extract 14 14) ?x1958) (bvnot ((_ extract 13 13) ?x1958)) (bvnot ((_ extract 12 12) ?x1958)) ((_ extract 11 11) ?x1958) (bvnot ((_ extract 10 10) ?x1958)) ((_ extract 9 9) ?x1958) (bvnot ((_ extract 8 8) ?x1958)))))
(let ((?x2039 (concat ((_ extract 26 26) ?x1958) (bvnot ((_ extract 25 25) ?x1958)) ((_ extract 24 24) ?x1958) (bvnot ((_ extract 23 22) ?x1958)) ((_ extract 21 17) ?x1958) (bvnot ((_ extract 16 15) ?x1958)) ((_ extract 14 14) ?x1958) (bvnot ((_ extract 13 13) ?x1958)) (bvnot ((_ extract 12 12) ?x1958)) ((_ extract 11 11) ?x1958) (bvnot ((_ extract 10 10) ?x1958)) ((_ extract 9 9) ?x1958) (bvnot ((_ extract 8 8) ?x1958)))))
(let ((?x1995 (bvadd (_ bv4294967293 32) (concat (bvadd (_ bv524285 19) ?x2039) ((_ extract 31 19) (bvadd (_ bv4294967293 32) ?x2002))))))
(let ((?x1971 (concat (bvnot (bvadd (_ bv13 4) ((_ extract 22 19) (bvadd (_ bv4294967293 32) ?x2002)))) (bvnot ((_ extract 31 4) ?x1995)))))
(let ((?x2016 (concat ((_ extract 31 2) (bvadd (_ bv4294967293 32) ?x1971)) (bvnot (bvadd (_ bv1 2) (bvnot ((_ extract 5 4) ?x1995)))))))
(let ((?x2025 (bvadd (_ bv2171031342 32) ?x2016)))
(let ((?x1992 (bvadd (_ bv2 2) (bvnot (bvadd (_ bv2 2) (bvnot ((_ extract 29 28) ?x2025)))))))
(let ((?x2065 (concat (bvnot ((_ extract 27 27) ?x2025)) ((_ extract 26 24) ?x2025) (bvnot ((_ extract 23 23) ?x2025)) ((_ extract 22 21) ?x2025) (bvnot ((_ extract 20 20) ?x2025)) (bvnot ((_ extract 19 19) ?x2025)) ((_ extract 18 18) ?x2025) (bvnot ((_ extract 17 17) ?x2025)) (bvnot ((_ extract 16 16) ?x2025)) ((_ extract 15 15) ?x2025) (bvnot ((_ extract 14 13) ?x2025)) ((_ extract 12 12) ?x2025) (bvnot ((_ extract 11 11) ?x2025)) (bvnot ((_ extract 10 10) ?x2025)) ((_ extract 9 9) ?x2025) (bvnot ((_ extract 8 7) ?x2025)) ((_ extract 6 6) ?x2025) (bvnot ((_ extract 5 4) ?x2025)) (bvnot ((_ extract 3 3) ?x2025)) (bvnot ((_ extract 2 2) ?x2025)) ((_ extract 1 1) ?x2025) (bvnot (bvadd (_ bv1 1) (bvnot ((_ extract 4 4) ?x1995)))) (bvnot ((_ extract 31 31) ?x2025)) ((_ extract 30 30) ?x2025) (bvnot ((_ extract 29 28) ?x2025)))))
(let ((?x2118 (concat ((_ extract 31 2) (bvadd (_ bv116244530 32) ?x2065)) (bvnot (bvadd (_ bv2 2) (bvnot ((_ extract 29 28) ?x2025)))))))
(let ((?x2128 (bvadd (_ bv6 32) ?x2118)))
(let ((?x2046 (bvnot ((_ extract 2 2) ?x2128))))
(let ((?x1989 ((_ extract 3 3) ?x2128)))
(let ((?x2052 (bvnot ((_ extract 4 4) ?x2128))))
(let ((?x2119 ((_ extract 6 5) ?x2128)))
(let ((?x2058 (concat (bvnot ((_ extract 31 30) ?x2128)) ((_ extract 29 28) ?x2128) (bvnot ((_ extract 27 26) ?x2128)) ((_ extract 25 23) ?x2128) (bvnot ((_ extract 22 22) ?x2128)) ((_ extract 21 20) ?x2128) (bvnot ((_ extract 19 17) ?x2128)) ((_ extract 16 15) ?x2128) (bvnot ((_ extract 14 14) ?x2128)) ((_ extract 13 13) ?x2128) (bvnot ((_ extract 12 10) ?x2128)) ((_ extract 9 9) ?x2128) (bvnot ((_ extract 8 7) ?x2128)) ?x2119 ?x2052 ?x1989 ?x2046 ?x1992)))
(let ((?x2086 (bvadd (_ bv3 32) ?x2058)))
(let ((?x2059 (bvnot ((_ extract 27 26) ?x2086))))
(let ((?x2024 (bvnot (bvadd (_ bv3 8) (concat (bvnot ((_ extract 7 7) ?x2128)) ?x2119 ?x2052 ?x1989 ?x2046 ?x1992)))))
(let ((?x2063 (bvadd (_ bv16381 14) (concat ?x2024 (bvnot ((_ extract 31 28) ?x2086)) ?x2059))))
(let ((?x1978 (concat ((_ extract 25 23) ?x2128) (bvnot ((_ extract 22 22) ?x2128)) ((_ extract 21 20) ?x2128) (bvnot ((_ extract 19 17) ?x2128)) ((_ extract 16 15) ?x2128) (bvnot ((_ extract 14 14) ?x2128)) ((_ extract 13 13) ?x2128) (bvnot ((_ extract 12 10) ?x2128)) ((_ extract 9 9) ?x2128) (bvnot ((_ extract 8 7) ?x2128)) ?x2119 ?x2052 ?x1989 ?x2046 ?x1992)))
(let ((?x1981 (bvadd (_ bv4294967293 32) (concat (bvnot (bvadd (_ bv3 26) ?x1978)) (bvnot ((_ extract 31 28) ?x2086)) ?x2059))))
(let ((?x2053 (concat (bvadd (_ bv29 5) (concat (bvnot ((_ extract 30 28) ?x2086)) ?x2059)) ((_ extract 31 14) ?x1981) ((_ extract 13 5) ?x2063))))
(let ((?x2146 (bvadd (_ bv1053454115 32) ?x2053)))
(let ((?x2189 (concat (bvnot ((_ extract 3 3) (bvadd (_ bv3 4) ((_ extract 8 5) ?x2063)))) (bvadd (_ bv3 3) ((_ extract 7 5) ?x2063)) ((_ extract 31 29) ?x2146) (bvnot ((_ extract 28 28) ?x2146)) ((_ extract 27 22) ?x2146) (bvnot ((_ extract 21 18) ?x2146)) ((_ extract 17 17) ?x2146) (bvnot ((_ extract 16 16) ?x2146)) ((_ extract 15 11) ?x2146) (bvnot ((_ extract 10 10) ?x2146)) ((_ extract 9 7) ?x2146) (bvnot ((_ extract 6 5) ?x2146)) ((_ extract 4 4) ?x2146))))
(let ((?x2157 (concat (bvnot ((_ extract 20 18) ?x2146)) ((_ extract 17 17) ?x2146) (bvnot ((_ extract 16 16) ?x2146)) ((_ extract 15 11) ?x2146) (bvnot ((_ extract 10 10) ?x2146)) ((_ extract 9 7) ?x2146) (bvnot ((_ extract 6 5) ?x2146)) ((_ extract 4 4) ?x2146))))
(let ((?x2162 ((_ extract 31 2) (bvadd (_ bv3499560052 32) (concat (bvadd (_ bv131069 17) ?x2157) ((_ extract 31 17) (bvadd (_ bv4294967293 32) ?x2189)))))))
(let ((?x1994 ((_ extract 31 12) (bvadd (_ bv2036738909 32) (concat (bvnot ?x2162) ((_ extract 18 17) (bvadd (_ bv4294967293 32) ?x2189)))))))
(let ((?x2182 ((_ extract 11 2) (bvadd (_ bv3499560052 32) (concat (bvadd (_ bv131069 17) ?x2157) ((_ extract 31 17) (bvadd (_ bv4294967293 32) ?x2189)))))))
(let ((?x2163 (concat (bvadd (_ bv2909 12) (concat (bvnot ?x2182) ((_ extract 18 17) (bvadd (_ bv4294967293 32) ?x2189)))) ?x1994)))
(let ((?x2078 (bvadd (_ bv4294967293 32) ?x2163)))
(let ((?x2169 ((_ extract 13 12) (bvadd (_ bv2036738909 32) (concat (bvnot ?x2162) ((_ extract 18 17) (bvadd (_ bv4294967293 32) ?x2189)))))))
(let ((?x2187 (bvadd (_ bv2958501455 32) (concat ((_ extract 25 2) ?x2078) (bvadd (_ bv1 2) ?x2169) ((_ extract 31 26) ?x2078)))))
(concat (bvnot ((_ extract 2 2) ?x2187)) ((_ extract 1 1) (bvadd (_ bv3 2) ((_ extract 27 26) ?x2078))) (bvnot (bvadd (_ bv1 1) ((_ extract 26 26) ?x2078))) ((_ extract 31 31) ?x2187) (bvnot ((_ extract 30 30) ?x2187)) ((_ extract 29 28) ?x2187) (bvnot ((_ extract 27 26) ?x2187)) ((_ extract 25 24) ?x2187) (bvnot ((_ extract 23 22) ?x2187)) ((_ extract 21 16) ?x2187) (bvnot ((_ extract 15 14) ?x2187)) ((_ extract 13 13) ?x2187) (bvnot ((_ extract 12 10) ?x2187)) ((_ extract 9 6) ?x2187) (bvnot ((_ extract 5 5) ?x2187)) ((_ extract 4 3) ?x2187))))))))))))))))))))))))))))))))))))))))))))))))